p cnf 86 387
-86 0
-86 -84 0
-86 -76 0
-86 -65 0
-86 -64 0
-86 -53 0
-86 -45 0
-85 0
-85 -83 0
-85 -75 0
-85 -64 0
-85 -63 0
-85 -52 0
-85 -44 0
-84 0
-84 -82 0
-84 -74 0
-84 -63 0
-84 -62 0
-84 -51 0
-83 0
-83 -81 0
-83 -73 0
-83 -62 0
-83 -61 0
-83 -50 0
-82 0
-82 -80 0
-82 -72 0
-82 -61 0
-82 -60 0
-82 -49 0
-81 0
-81 -79 0
-81 -71 0
-81 -60 0
-81 -59 0
-81 -48 0
-80 0
-80 -78 0
-80 -70 0
-80 -59 0
-80 -58 0
-80 -47 0
-79 0
-79 -77 0
-79 -69 0
-79 -58 0
-79 -57 0
-79 -46 0
-78 0
-78 -76 0
-78 -68 0
-78 -57 0
-78 -56 0
-78 -45 0
-77 0
-77 -75 0
-77 -67 0
-77 -56 0
-77 -55 0
-77 -44 0
-76 0
-76 -74 0
-76 -66 0
-76 -55 0
-76 -54 0
-75 0
-75 -73 0
-75 -65 0
-75 -54 0
-75 -53 0
-74 0
-74 -72 0
-74 -64 0
-74 -53 0
-74 -52 0
-73 0
-73 -71 0
-73 -63 0
-73 -52 0
-73 -51 0
-72 0
-72 -70 0
-72 -62 0
-72 -51 0
-72 -50 0
-71 0
-71 -69 0
-71 -61 0
-71 -50 0
-71 -49 0
-70 0
-70 -68 0
-70 -60 0
-70 -49 0
-70 -48 0
-69 0
-69 -67 0
-69 -59 0
-69 -48 0
-69 -47 0
-68 0
-68 -66 0
-68 -58 0
-68 -47 0
-68 -46 0
-67 0
-67 -65 0
-67 -57 0
-67 -46 0
-67 -45 0
-66 0
-66 -64 0
-66 -56 0
-66 -45 0
-66 -44 0
-65 0
-65 -63 0
-65 -55 0
-65 -44 0
-64 0
-64 -62 0
-64 -54 0
-63 0
-63 -61 0
-63 -53 0
-62 0
-62 -60 0
-62 -52 0
-61 0
-61 -59 0
-61 -51 0
-60 0
-60 -58 0
-60 -50 0
-59 0
-59 -57 0
-59 -49 0
-58 0
-58 -56 0
-58 -48 0
-57 0
-57 -55 0
-57 -47 0
-56 0
-56 -54 0
-56 -46 0
-55 0
-55 -53 0
-55 -45 0
-54 0
-54 -52 0
-54 -44 0
-53 0
-53 -51 0
-52 0
-52 -50 0
-51 0
-51 -49 0
-50 0
-50 -48 0
-49 0
-49 -47 0
-48 0
-48 -46 0
-47 0
-47 -45 0
-46 0
-46 -44 0
-45 0
-44 0
-43 -40 -37 0
-43 -40 -3 0
-43 -6 -3 0
-42 -39 -36 0
-42 -39 -2 0
-42 -5 -2 0
-41 -38 -35 0
-41 -38 -1 0
-41 -4 -1 0
-40 -37 -34 0
-39 -36 -33 0
-38 -35 -32 0
-37 -34 -31 0
-36 -33 -30 0
-35 -32 -29 0
-34 -31 -28 0
-33 -30 -27 0
-32 -29 -26 0
-31 -28 -25 0
-30 -27 -24 0
-29 -26 -23 0
-28 -25 -22 0
-27 -24 -21 0
-26 -23 -20 0
-25 -22 -19 0
-24 -21 -18 0
-23 -20 -17 0
-22 -19 -16 0
-21 -18 -15 0
-20 -17 -14 0
-19 -16 -13 0
-18 -15 -12 0
-17 -14 -11 0
-16 -13 -10 0
-15 -12 -9 0
-14 -11 -8 0
-13 -10 -7 0
-12 -9 -6 0
-11 -8 -5 0
-10 -7 -4 0
-9 -6 -3 0
-8 -5 -2 0
-7 -4 -1 0
1 14 44 63 0
1 14 44 68 0
1 20 44 50 63 0
1 20 44 50 74 0
1 25 44 68 74 0
1 25 55 68 74 0
1 31 50 74 0
1 31 55 74 0
2 15 45 64 0
2 15 45 69 0
2 21 45 51 64 0
2 21 45 51 75 0
2 26 45 69 75 0
2 26 56 69 75 0
2 32 51 75 0
2 32 56 75 0
3 16 46 65 0
3 16 46 70 0
3 22 46 52 65 0
3 22 46 52 76 0
3 27 46 70 76 0
3 27 57 70 76 0
3 33 52 76 0
3 33 57 76 0
4 17 47 66 0
4 17 47 71 0
4 23 47 53 66 0
4 23 47 53 77 0
4 28 47 71 77 0
4 28 58 71 77 0
4 34 53 77 0
4 34 58 77 0
5 18 48 67 0
5 18 48 72 0
5 24 48 54 67 0
5 24 48 54 78 0
5 29 48 72 78 0
5 29 59 72 78 0
5 35 54 78 0
5 35 59 78 0
6 19 49 68 0
6 19 49 73 0
6 25 49 55 68 0
6 25 49 55 79 0
6 30 49 73 79 0
6 30 60 73 79 0
6 36 55 79 0
6 36 60 79 0
7 20 50 69 0
7 20 50 74 0
7 26 50 56 69 0
7 26 50 56 80 0
7 31 50 74 80 0
7 31 61 74 80 0
7 37 56 80 0
7 37 61 80 0
8 21 51 70 0
8 21 51 75 0
8 27 51 57 70 0
8 27 51 57 81 0
8 32 51 75 81 0
8 32 62 75 81 0
8 38 57 81 0
8 38 62 81 0
9 22 52 71 0
9 22 52 76 0
9 28 52 58 71 0
9 28 52 58 82 0
9 33 52 76 82 0
9 33 63 76 82 0
9 39 58 82 0
9 39 63 82 0
10 23 53 72 0
10 23 53 77 0
10 29 53 59 72 0
10 29 53 59 83 0
10 34 53 77 83 0
10 34 64 77 83 0
10 40 59 83 0
10 40 64 83 0
11 24 54 73 0
11 24 54 78 0
11 30 54 60 73 0
11 30 54 60 84 0
11 35 54 78 84 0
11 35 65 78 84 0
11 41 60 84 0
11 41 65 84 0
12 25 55 74 0
12 25 55 79 0
12 31 55 61 74 0
12 31 55 61 85 0
12 36 55 79 85 0
12 36 66 79 85 0
12 42 61 85 0
12 42 66 85 0
13 26 56 75 0
13 26 56 80 0
13 32 56 62 75 0
13 32 56 62 86 0
13 37 56 80 86 0
13 37 67 80 86 0
13 43 62 86 0
13 43 67 86 0
14 27 57 76 0
14 27 57 81 0
14 33 44 57 63 0
14 33 57 63 76 0
14 38 44 57 81 0
14 38 44 68 81 0
15 28 58 77 0
15 28 58 82 0
15 34 45 58 64 0
15 34 58 64 77 0
15 39 45 58 82 0
15 39 45 69 82 0
16 29 59 78 0
16 29 59 83 0
16 35 46 59 65 0
16 35 59 65 78 0
16 40 46 59 83 0
16 40 46 70 83 0
17 30 60 79 0
17 30 60 84 0
17 36 47 60 66 0
17 36 60 66 79 0
17 41 47 60 84 0
17 41 47 71 84 0
18 31 61 80 0
18 31 61 85 0
18 37 48 61 67 0
18 37 61 67 80 0
18 42 48 61 85 0
18 42 48 72 85 0
19 32 62 81 0
19 32 62 86 0
19 38 49 62 68 0
19 38 62 68 81 0
19 43 49 62 86 0
19 43 49 73 86 0
20 33 44 63 0
20 33 63 82 0
20 39 50 63 69 0
20 39 63 69 82 0
21 34 45 64 0
21 34 64 83 0
21 40 51 64 70 0
21 40 64 70 83 0
22 35 46 65 0
22 35 65 84 0
22 41 52 65 71 0
22 41 65 71 84 0
23 36 47 66 0
23 36 66 85 0
23 42 53 66 72 0
23 42 66 72 85 0
24 37 48 67 0
24 37 67 86 0
24 43 54 67 73 0
24 43 67 73 86 0
25 38 44 68 0
25 38 49 68 0
26 39 45 69 0
26 39 50 69 0
27 40 46 70 0
27 40 51 70 0
28 41 47 71 0
28 41 52 71 0
29 42 48 72 0
29 42 53 72 0
30 43 49 73 0
30 43 54 73 0
